
Gurobi 6.5.2 (linux64) logging started Tue Mar 14 21:23:45 2017


Gurobi 6.5.2 (linux64) logging started Tue Mar 14 21:23:45 2017

Optimize a model with 101 rows, 663 columns and 1589 nonzeros
Coefficient statistics:
  Matrix range    [1e+00, 2e+00]
  Objective range [2e+00, 1e+02]
  Bounds range    [1e+00, 1e+00]
  RHS range       [1e+00, 1e+00]
Found heuristic solution: objective 942
Presolve removed 31 rows and 1 columns
Presolve time: 0.00s
Presolved: 70 rows, 662 columns, 1400 nonzeros
Variable types: 0 continuous, 662 integer (662 binary)

Root relaxation: objective 3.887500e+02, 53 iterations, 0.00 seconds

    Nodes    |    Current Node    |     Objective Bounds      |     Work
 Expl Unexpl |  Obj  Depth IntInf | Incumbent    BestBd   Gap | It/Node Time

     0     0  388.75000    0   28  942.00000  388.75000  58.7%     -    0s
     0     0  461.54167    0   53  942.00000  461.54167  51.0%     -    0s
     0     0  462.86905    0   56  942.00000  462.86905  50.9%     -    0s
     0     0  486.19444    0   49  942.00000  486.19444  48.4%     -    0s
     0     0  490.80556    0   30  942.00000  490.80556  47.9%     -    0s
     0     0  498.20000    0   33  942.00000  498.20000  47.1%     -    0s
     0     0  498.90000    0   36  942.00000  498.90000  47.0%     -    0s
     0     0  499.47541    0   41  942.00000  499.47541  47.0%     -    0s
     0     2  500.85041    0   57  942.00000  500.85041  46.8%     -    0s
*  184   122              61     669.0000000  510.01366  23.8%   5.2    0s
*  453   330              77     614.0000000  510.83636  16.8%   5.1    0s
H 1075   726                     606.0000000  515.86905  14.9%   5.0    0s
* 2296  1112              45     603.0000000  531.71429  11.8%   6.3    2s
* 3541  1544              34     596.0000000  535.48198  10.2%   6.2    3s
* 3542  1526              34     595.0000000  535.48198  10.0%   6.2    3s
* 3942  1733              25     593.0000000  536.33333  9.56%   6.3    3s
* 4345  1583              29     582.0000000  537.00000  7.73%   6.3    3s
* 4379  1424              30     578.0000000  537.00000  7.09%   6.3    3s
* 4845  1575              30     576.0000000  538.00000  6.60%   6.3    3s
* 4856   967              30     564.0000000  538.00000  4.61%   6.3    3s
* 4857   852              30     562.0000000  538.00000  4.27%   6.3    3s
* 5600   854              24     561.0000000  540.66667  3.62%   6.7    3s
  8125   982     cutoff   38       561.00000  546.74242  2.54%   7.0    5s
*10801  1048              25     560.0000000  551.33333  1.55%   6.8    6s

Cutting planes:
  Gomory: 41
  Cover: 85
  MIR: 5
  Flow cover: 16
  Zero half: 36
  Lazy constraints: 1298

Explored 13959 nodes (87780 simplex iterations) in 8.62 seconds
Thread count was 8 (of 8 available processors)

Optimal solution found (tolerance 1.00e-04)
Best objective 5.600000000000e+02, best bound 5.600000000000e+02, gap 0.0%
